--- Job 3B.gms Start 12/31/21 15:25:42 37.1.0 r07954d5 WEX-WEI x86 64bit/MS Windows
--- Applying:
    C:\GAMS\37\gmsprmNT.txt
--- GAMS Parameters defined
    Input C:\Users\fatma\Desktop\assignment_2019402204\3B.gms
    PageSize 0
    ScrDir C:\Users\fatma\Desktop\assignment_2019402204\225a\
    SysDir C:\GAMS\37\
    LogOption 3
    ErrMsg 1
    ErrorLog 99
    IDE 1
    LstTitleLeftAligned 1
Licensee: GAMS Demo license for FATMANUR YAMAN           G211230|0002CO-GEN
          BOGAZICI UNIVERSITY, Turkey                              DL057000
          C:\Users\fatma\Documents\GAMS\gamslice.txt
          fatmanur.yaman@boun.edu.tr, FATMANUR YAMAN                       
          Demo license for demonstration and instructional purposes only
Processor information: 1 socket(s), 6 core(s), and 12 thread(s) available
GAMS 37.1.0   Copyright (C) 1987-2021 GAMS Development. All rights reserved
--- Starting compilation
--- 3B.gms(62) 3 Mb
--- Starting execution: elapsed 0:00:00.025
--- 3B.gms(59) 4 Mb
--- Generating MIP model question
--- 3B.gms(60) 4 Mb
---   84 rows  73 columns  309 non-zeroes
---   24 discrete-columns
--- Executing CPLEX (Solvelink=2): elapsed 0:00:00.044

IBM ILOG CPLEX   37.1.0 r07954d5 Released Nov 11, 2021 WEI x86 64bit/MS Window

--- *** This solver runs with a demo license. No commercial use.

Reading parameter(s) from "C:\Users\fatma\Desktop\assignment_2019402204\cplex.opt"
>>  objrng all
>>  rhsrng all
Finished reading from "C:\Users\fatma\Desktop\assignment_2019402204\cplex.opt"

--- GMO setup time: 0.00s
--- GMO memory 0.52 Mb (peak 0.52 Mb)
--- Dictionary memory 0.00 Mb
--- Cplex 20.1.0.1 link memory 0.00 Mb (peak 0.01 Mb)
--- Starting Cplex

Version identifier: 20.1.0.1 | 2021-04-07 | 3a818710c
CPXPARAM_Advance                                 0
CPXPARAM_Threads                                 1
CPXPARAM_MIP_Display                             4
CPXPARAM_MIP_Pool_Capacity                       0
CPXPARAM_MIP_Tolerances_AbsMIPGap                0
Generic callback                                 0x50
Found incumbent of value 8400.000000 after 0.00 sec. (0.00 ticks)
Tried aggregator 1 time.
MIP Presolve eliminated 23 rows and 1 columns.
MIP Presolve modified 72 coefficients.
Reduced MIP has 60 rows, 72 columns, and 218 nonzeros.
Reduced MIP has 24 binaries, 0 generals, 0 SOSs, and 0 indicators.
Presolve time = 0.00 sec. (0.13 ticks)
Probing time = 0.00 sec. (0.01 ticks)
Tried aggregator 1 time.
Detecting symmetries...
MIP Presolve modified 60 coefficients.
Reduced MIP has 60 rows, 72 columns, and 218 nonzeros.
Reduced MIP has 24 binaries, 0 generals, 0 SOSs, and 0 indicators.
Presolve time = 0.00 sec. (0.13 ticks)
Probing time = 0.00 sec. (0.01 ticks)
Clique table members: 1.
MIP emphasis: balance optimality and feasibility.
MIP search method: dynamic search.
Parallel mode: none, using 1 thread.
Tried aggregator 1 time.
No LP presolve or aggregator reductions.
Presolve time = 0.00 sec. (0.03 ticks)

Iteration log . . .
Iteration:     1   Dual objective     =             0.000000
Root relaxation solution time = 0.00 sec. (0.10 ticks)

        Nodes                                         Cuts/
   Node  Left     Objective  IInf  Best Integer    Best Bound    ItCnt     Gap

*     0+    0                         8400.0000        0.0000           100.00%
Found incumbent of value 8400.000000 after 0.00 sec. (0.46 ticks)
      0     0     7000.0000     2     8400.0000     7000.0000       17   16.67%
*     0+    0                         7000.0000     7000.0000             0.00%
Found incumbent of value 7000.000000 after 0.00 sec. (0.50 ticks)
      0     0        cutoff           7000.0000     7000.0000       17    0.00%
Elapsed time = 0.00 sec. (0.50 ticks, tree = 0.01 MB)

Root node processing (before b&c):
  Real time             =    0.00 sec. (0.50 ticks)
Sequential b&c:
  Real time             =    0.00 sec. (0.00 ticks)
                          ------------
Total (root+branch&cut) =    0.00 sec. (0.50 ticks)

--- MIP status (101): integer optimal solution.
--- Cplex Time: 0.00sec (det. 0.50 ticks)

--- Fixing integer variables and solving final LP...

Version identifier: 20.1.0.1 | 2021-04-07 | 3a818710c
CPXPARAM_Advance                                 2
CPXPARAM_Threads                                 1
CPXPARAM_MIP_Display                             4
CPXPARAM_MIP_Pool_Capacity                       0
CPXPARAM_MIP_Tolerances_AbsMIPGap                0
Tried aggregator 1 time.
LP Presolve eliminated 73 rows and 49 columns.
Reduced LP has 10 rows, 24 columns, and 48 nonzeros.
Presolve time = 0.00 sec. (0.05 ticks)
Initializing dual steep norms . . .

Iteration log . . .
Iteration:     1   Dual objective     =          7000.000000

--- Fixed MIP status (1): optimal.
--- Cplex Time: 0.00sec (det. 0.10 ticks)

--- Start ranging / sensitivity analysis...
--- Right-hand-side ranging...

EQUATION NAME                            LOWER           CURRENT             UPPER
-------------                            -----           -------             -----
cost                                      -INF                NA              +INF   
supply(P1)                                 290               290       1.00001e+07   
supply(P2)                                 220               220               280   
supply(P3)                                 180               180               310   
supply(P4)                                 280               280               340   
demand(D1)                                 120               180               180   
demand(D2)                                 140               200               200   
demand(D3)                                -INF               160               160   
demand(D4)                                  80               140               140   
demand(D5)                                 120               250               250   
demand(Dummy)                                0                40                40   
rent(P1.D1)                              1e+07             1e+07              +INF   
rent(P1.D2)                              1e+07             1e+07              +INF   
rent(P1.D3)                                160             1e+07              +INF   
rent(P1.D4)                              1e+07             1e+07              +INF   
rent(P1.D5)                                130             1e+07              +INF   
rent(P1.Dummy)                               0             1e+07              +INF   
rent(P2.D1)                                  0             1e+07              +INF   
rent(P2.D2)                                 80             1e+07              +INF   
rent(P2.D3)                                  0             1e+07              +INF   
rent(P2.D4)                                140             1e+07              +INF   
rent(P2.D5)                                  0             1e+07              +INF   
rent(P2.Dummy)                               0             1e+07              +INF   
rent(P3.D1)                                 60             1e+07              +INF   
rent(P3.D2)                                  0             1e+07              +INF   
rent(P3.D3)                                  0             1e+07              +INF   
rent(P3.D4)                                  0             1e+07              +INF   
rent(P3.D5)                                120             1e+07              +INF   
rent(P3.Dummy)                               0             1e+07              +INF   
rent(P4.D1)                                120             1e+07              +INF   
rent(P4.D2)                                120             1e+07              +INF   
rent(P4.D3)                                  0             1e+07              +INF   
rent(P4.D4)                                  0             1e+07              +INF   
rent(P4.D5)                                  0             1e+07              +INF   
rent(P4.Dummy)                           1e+07             1e+07              +INF   
invest(P1.D1)                           -1e+07                 0              +INF   
invest(P1.D2)                           -1e+07                 0              +INF   
invest(P1.D3)                                0                 0              +INF   
invest(P1.D4)                           -1e+07                 0              +INF   
invest(P1.D5)                                0                 0              +INF   
invest(P1.Dummy)                             0                 0              +INF   
invest(P2.D1)                                0                 0              +INF   
invest(P2.D2)                                0                 0              +INF   
invest(P2.D3)                                0                 0              +INF   
invest(P2.D4)                                0                 0              +INF   
invest(P2.D5)                                0                 0              +INF   
invest(P2.Dummy)                             0                 0              +INF   
invest(P3.D1)                                0                 0              +INF   
invest(P3.D2)                                0                 0              +INF   
invest(P3.D3)                                0                 0              +INF   
invest(P3.D4)                                0                 0              +INF   
invest(P3.D5)                                0                 0              +INF   
invest(P3.Dummy)                             0                 0              +INF   
invest(P4.D1)                                0                 0              +INF   
invest(P4.D2)                                0                 0              +INF   
invest(P4.D3)                                0                 0              +INF   
invest(P4.D4)                                0                 0              +INF   
invest(P4.D5)                                0                 0              +INF   
invest(P4.Dummy)                  -9.99996e+06                 0              +INF   
numofrent                                    4                 4              +INF   
restrict(P1.D1)                              0                 1              +INF   
restrict(P1.D2)                              0                 1              +INF   
restrict(P1.D3)                              0                 1              +INF   
restrict(P1.D4)                              0                 1              +INF   
restrict(P1.D5)                              0                 1              +INF   
restrict(P1.Dummy)                           0                 1              +INF   
restrict(P2.D1)                              0                 1              +INF   
restrict(P2.D2)                              0                 1              +INF   
restrict(P2.D3)                              0                 1              +INF   
restrict(P2.D4)                              0                 1              +INF   
restrict(P2.D5)                              0                 1              +INF   
restrict(P2.Dummy)                           0                 1              +INF   
restrict(P3.D1)                              0                 1              +INF   
restrict(P3.D2)                              0                 1              +INF   
restrict(P3.D3)                              0                 1              +INF   
restrict(P3.D4)                              0                 1              +INF   
restrict(P3.D5)                              0                 1              +INF   
restrict(P3.Dummy)                           0                 1              +INF   
restrict(P4.D1)                              0                 1              +INF   
restrict(P4.D2)                              0                 1              +INF   
restrict(P4.D3)                              0                 1              +INF   
restrict(P4.D4)                              0                 1              +INF   
restrict(P4.D5)                              0                 1              +INF   
restrict(P4.Dummy)                           0                 1              +INF   

--- Objective ranging...

VARIABLE NAME                            LOWER           CURRENT             UPPER
-------------                            -----           -------             -----
x(P1.D1)                                     0               7.5              +INF   
x(P1.D2)                                     0                 7              +INF   
x(P1.D3)                                     0                 8              +INF   
x(P1.D4)                                     0               5.5              +INF   
x(P1.D5)                                     0                 8              +INF   
x(P1.Dummy)                                  0                 0              +INF   
x(P2.D1)                                     0                 6              +INF   
x(P2.D2)                                     0               6.5              +INF   
x(P2.D3)                                     0                 7              +INF   
x(P2.D4)                                     0               7.5              +INF   
x(P2.D5)                                     0               8.5              +INF   
x(P2.Dummy)                                  0                 0              +INF   
x(P3.D1)                                     0                11              +INF   
x(P3.D2)                                     0                 6              +INF   
x(P3.D3)                                     0               6.5              +INF   
x(P3.D4)                                     0                 6              +INF   
x(P3.D5)                                     0                 7              +INF   
x(P3.Dummy)                                  0                 0              +INF   
x(P4.D1)                                     0                 9              +INF   
x(P4.D2)                                     0                 7              +INF   
x(P4.D3)                                     0                10              +INF   
x(P4.D4)                                     0                 6              +INF   
x(P4.D5)                                     0               7.5              +INF   
x(P4.Dummy)                                  0                 0                 0   
t(P1.D1)                                     0                 0              +INF   
t(P1.D2)                                     0                 0              +INF   
t(P1.D3)                                  -INF                 0                 0   
t(P1.D4)                                     0                 0              +INF   
t(P1.D5)                                     0                 0                 0   
t(P1.Dummy)                                  0                 0              +INF   
t(P2.D1)                                     0                 0              +INF   
t(P2.D2)                                     0                 0                 0   
t(P2.D3)                                     0                 0              +INF   
t(P2.D4)                                     0                 0                 0   
t(P2.D5)                                     0                 0              +INF   
t(P2.Dummy)                                  0                 0              +INF   
t(P3.D1)                                     0                 0                 0   
t(P3.D2)                                     0                 0              +INF   
t(P3.D3)                                     0                 0              +INF   
t(P3.D4)                                     0                 0              +INF   
t(P3.D5)                                     0                 0                 0   
t(P3.Dummy)                                  0                 0              +INF   
t(P4.D1)                                     0                 0                 0   
t(P4.D2)                                     0                 0                 0   
t(P4.D3)                                     0                 0              +INF   
t(P4.D4)                                     0                 0              +INF   
t(P4.D5)                                     0                 0              +INF   
t(P4.Dummy)                                  0                 0              +INF   
y(P1.D1)                                  -INF              -350              +INF   
y(P1.D2)                                  -INF              -350              +INF   
y(P1.D3)                                  -INF              -350              +INF   
y(P1.D4)                                  -INF              -350              +INF   
y(P1.D5)                                  -INF              -350              +INF   
y(P1.Dummy)                               -INF              -350              +INF   
y(P2.D1)                                  -INF              -350              +INF   
y(P2.D2)                                  -INF              -350              +INF   
y(P2.D3)                                  -INF              -350              +INF   
y(P2.D4)                                  -INF              -350              +INF   
y(P2.D5)                                  -INF              -350              +INF   
y(P2.Dummy)                               -INF              -350              +INF   
y(P3.D1)                                  -INF              -350              +INF   
y(P3.D2)                                  -INF              -350              +INF   
y(P3.D3)                                  -INF              -350              +INF   
y(P3.D4)                                  -INF              -350              +INF   
y(P3.D5)                                  -INF              -350              +INF   
y(P3.Dummy)                               -INF              -350              +INF   
y(P4.D1)                                  -INF              -350              +INF   
y(P4.D2)                                  -INF              -350              +INF   
y(P4.D3)                                  -INF              -350              +INF   
y(P4.D4)                                  -INF              -350              +INF   
y(P4.D5)                                  -INF              -350              +INF   
y(P4.Dummy)                               -INF              -350              +INF   
z                                         -INF                NA              +INF   


Proven optimal solution
MIP Solution:         7000.000000    (17 iterations, 0 nodes)
Final Solve:          7000.000000    (9 iterations)

Best possible:        7000.000000
Absolute gap:            0.000000
Relative gap:            0.000000

--- Reading solution for model question
--- Executing after solve: elapsed 0:00:00.214
--- 3B.gms(61) 4 Mb
*** Status: Normal completion
--- Job 3B.gms Stop 12/31/21 15:25:42 elapsed 0:00:00.214
